1 1256 6
2 1035 6
3 1003 6
6 999 6
7 987 6
8 982 6
9 940 6
25 922 6
39 894 6
43 876 6



1 1136 6
2 1026 6
3 983 6
5 981 6
7 975 6
10 973 6
12 968 6
13 933 6
26 932 6
46 920 6
87 916 6
128 901 6
199 890 6
258 881 6
565 866 6



1 1142 6
2 987 6
3 986 6
6 969 6
10 945 6
23 932 6
24 883 6



1 1195 6
2 1057 6
3 979 6
7 972 6
8 949 6
9 941 6
27 936 6
31 935 6
33 914 6
43 909 6
73 896 6
374 893 6
576 888 6
633 878 6
865 874 6



1 1211 7
2 1022 6
3 993 6
4 931 6
21 914 6
32 908 6
71 906 6
401 904 6
492 900 6
723 871 6



